NAME : a280.tsp
TYPE : TOUR
DIMENSION : 280
TOUR_LENGTH : 2970.836881983915
TOUR_SECTION
1
280
2
3
279
278
4
277
276
275
274
273
272
271
16
17
18
19
20
21
128
127
126
125
124
123
122
121
120
119
157
158
159
160
175
161
162
163
164
165
166
167
168
169
102
103
104
105
106
107
173
174
171
172
170
101
100
99
98
97
96
95
94
93
92
91
90
109
89
81
82
83
88
112
111
110
108
114
113
87
84
85
86
116
115
117
118
62
63
64
65
66
67
70
71
72
73
74
75
76
77
78
79
80
69
68
58
59
44
45
46
47
48
49
50
51
52
53
54
55
56
57
60
61
43
42
41
40
39
38
37
36
35
34
33
32
31
30
29
28
27
26
22
25
23
24
14
13
15
12
11
10
8
9
7
6
5
248
249
250
247
244
243
242
241
240
239
238
231
232
233
234
235
236
237
246
245
251
230
229
228
227
226
225
224
223
222
219
220
221
217
218
215
216
213
214
211
212
207
210
209
252
253
208
206
205
204
203
202
201
196
195
194
197
198
199
200
144
143
142
147
148
149
139
140
141
265
266
138
137
267
268
136
135
269
270
134
133
132
131
130
129
154
155
153
156
152
151
177
176
181
182
183
184
185
187
186
190
189
188
191
192
193
180
179
150
178
146
145
255
254
257
258
259
260
261
262
263
264
256
-1
